
Gurobi 9.5.0 (win64) logging started Fri May 13 18:39:14 2022

Set parameter LogFile to value "../results/logs/log_email-enron-only_2_1_2022_05_13_18_39.log"
Set parameter LazyConstraints to value 1
Gurobi Optimizer version 9.5.0 build v9.5.0rc5 (win64)
Thread count: 6 physical cores, 12 logical processors, using up to 12 threads
Optimize a model with 14031 rows, 429 columns and 44436 nonzeros
Model fingerprint: 0xde79b720
Variable types: 0 continuous, 429 integer (429 binary)
Coefficient statistics:
  Matrix range     [1e+00, 2e+00]
  Objective range  [1e+00, 1e+00]
  Bounds range     [1e+00, 1e+00]
  RHS range        [1e+00, 1e+00]
Found heuristic solution: objective -0.0000000
Presolve removed 8007 rows and 6 columns
Presolve time: 0.22s
Presolved: 6024 rows, 423 columns, 28398 nonzeros
Variable types: 0 continuous, 423 integer (423 binary)
Found heuristic solution: objective 61.0000000

Root relaxation: objective 1.131667e+02, 156 iterations, 0.02 seconds (0.02 work units)

    Nodes    |    Current Node    |     Objective Bounds      |     Work
 Expl Unexpl |  Obj  Depth IntInf | Incumbent    BestBd   Gap | It/Node Time

     0     0  113.16667    0   96   61.00000  113.16667  85.5%     -    0s
H    0     0                     105.0000000  113.16667  7.78%     -    0s
H    0     0                     110.0000000  113.16667  2.88%     -    0s
     0     0     cutoff    0       110.00000  110.00000  0.00%     -    0s

Cutting planes:
  Gomory: 7
  Cover: 1
  Clique: 33
  GUB cover: 5
  Zero half: 99

Explored 1 nodes (173 simplex iterations) in 0.44 seconds (0.29 work units)
Thread count was 12 (of 12 available processors)

Solution count 4: 110 105 61 -0 

Optimal solution found (tolerance 0.00e+00)
Best objective 1.100000000000e+02, best bound 1.100000000000e+02, gap 0.0000%

User-callback calls 229, time in user-callback 0.01 sec
